solution/p_5_6.txt_600.col.log
CPXPARAM_TimeLimit                               600
CPXPARAM_WorkMem                                 4096
CPXPARAM_Threads                                 1
Found incumbent of value 0,000000 after 0,00 sec. (0,01 ticks)
Tried aggregator 1 time.
MIP Presolve eliminated 5 rows and 110 columns.
MIP Presolve modified 2 coefficients.
Reduced MIP has 30 rows, 65 columns, and 125 nonzeros.
Reduced MIP has 65 binaries, 0 generals, 0 SOSs, and 0 indicators.
Presolve time = 0,00 sec. (0,36 ticks)
Probing time = 0,00 sec. (0,03 ticks)
Tried aggregator 1 time.
MIP Presolve eliminated 23 rows and 49 columns.
Reduced MIP has 7 rows, 16 columns, and 32 nonzeros.
Reduced MIP has 16 binaries, 0 generals, 0 SOSs, and 0 indicators.
Presolve time = 0,00 sec. (0,04 ticks)
Probing time = 0,00 sec. (0,01 ticks)
Tried aggregator 1 time.
Reduced MIP has 7 rows, 16 columns, and 32 nonzeros.
Reduced MIP has 16 binaries, 0 generals, 0 SOSs, and 0 indicators.
Presolve time = 0,00 sec. (0,03 ticks)
Probing time = 0,00 sec. (0,01 ticks)
Clique table members: 11.
MIP emphasis: balance optimality and feasibility.
MIP search method: dynamic search.
Parallel mode: none, using 1 thread.
Root relaxation solution time = 0,00 sec. (0,01 ticks)

        Nodes                                         Cuts/
   Node  Left     Objective  IInf  Best Integer    Best Bound    ItCnt     Gap

*     0+    0                          302,0000      492,0000            62,91%
*     0     0      integral     0      359,0000      359,0000        5    0,00%
Elapsed time = 0,01 sec. (4,61 ticks, tree = 0,00 MB, solutions = 3)

Root node processing (before b&c):
  Real time             =    0,01 sec. (4,61 ticks)
Sequential b&c:
  Real time             =    0,00 sec. (0,00 ticks)
                          ------------
Total (root+branch&cut) =    0,01 sec. (4,61 ticks)
